(declare-const |K:40| Int)
(declare-const tmp___1 Int)
(declare-const |x':32| Int)
(declare-const |tmp___1':33| Int)
(declare-const |phi_tmp___1:11:13:30| Int)
(declare-const |phi_tmp___1:9:10:12:29| Int)
(declare-const |havoc:0| Int)
(declare-const |havoc:2| Int)
(declare-const |sn':31| Int)
(assert (and (<= (- |havoc:0|) 0) (<= (- |havoc:2|) 0)
               (or (not (and (<= (- |K:40|) 0) (<= |K:40| 0)))
                     (= (+ |sn':31| (* -2 |K:40|)) 0))
               (or (not (<= (+ (- |K:40|) 1) 0))
                     (= (+ |sn':31| (* -2 |K:40|)) 0))
               (or (not (and (<= (- |K:40|) 0) (<= |K:40| 0)))
                     (= (+ (- tmp___1) |tmp___1':33|) 0))
               (or (not (<= (+ (- |K:40|) 1) 0)) (= (+ |tmp___1':33| -1) 0))
               (or (not (and (<= (- |K:40|) 0) (<= |K:40| 0)))
                     (= (+ |x':32| (- |K:40|)) 0))
               (or (not (<= (+ (- |K:40|) 1) 0)) (= (+ |x':32| (- |K:40|)) 0))
               (or (and (= |K:40| 0) (= (+ tmp___1 (- |tmp___1':33|)) 0)
                          (= (- |x':32|) 0) (= (- |sn':31|) 0))
                     (and (<= (+ (- |K:40|) 1) 0)
                            (= (+ (* -2 |x':32|) |sn':31|) 0)
                            (= (+ |tmp___1':33| -1) 0)
                            (<= (+ (- |x':32|) 1) 0))) (<= (- |K:40|) 0)
               (<= (- |x':32|) 0) (<= (- |sn':31|) 0)
               (= (+ (* 2 |x':32|) (- |sn':31|)) 0)
               (or (and (not (= (+ (* -2 |x':32|) |sn':31|) 0))
                          (or (and (not (= (+ |sn':31| 2) 0))
                                     (= (- |phi_tmp___1:9:10:12:29|) 0))
                                (and (= (+ |sn':31| 2) 0)
                                       (= (+ (- |phi_tmp___1:9:10:12:29|) 1) 0)))
                          (= (+ (- |phi_tmp___1:11:13:30|)
                                  |phi_tmp___1:9:10:12:29|) 0))
                     (and (= (+ (* -2 |x':32|) |sn':31|) 0)
                            (= (+ (- |phi_tmp___1:11:13:30|) 1) 0)))
               (= |phi_tmp___1:11:13:30| 0)))
(check-sat)
